min: 70 x1_1 + 97 x1_2 + 7 x1_3 + 96 x1_4 + 73 x1_5 + 81 x1_6 + 27 x2_1 + 39 x2_2 + 17 x2_3 + 10 x2_4 + 61 x2_5 + 57 x2_6 + 19 x3_1 + 69 x3_2 + 31 x3_3 + 11 x3_4 + 91 x3_5 + 90 x3_6 + 20 x4_1 + 97 x4_2 + 90 x4_3 + 33 x4_4 + 26 x4_5 + 91 x4_6 + 35 x5_1 + 68 x5_2 + 43 x5_3 + 16 x5_4 + 94 x5_5 + 76 x5_6 + 4 x6_1 + 1 x6_2 + 66 x6_3 + 39 x6_4 + 84 x6_5 + 95 x6_6;

x1_1 + x1_2 + x1_3 + x1_4 + x1_5 + x1_6 = 4214;
x2_1 + x2_2 + x2_3 + x2_4 + x2_5 + x2_6 = 3764;
x3_1 + x3_2 + x3_3 + x3_4 + x3_5 + x3_6 = 1430;
x4_1 + x4_2 + x4_3 + x4_4 + x4_5 + x4_6 = 3863;
x5_1 + x5_2 + x5_3 + x5_4 + x5_5 + x5_6 = 1398;
x6_1 + x6_2 + x6_3 + x6_4 + x6_5 + x6_6 = 4046;

x1_1 + x2_1 + x3_1 + x4_1 + x5_1 + x6_1 >= 2272;
x1_2 + x2_2 + x3_2 + x4_2 + x5_2 + x6_2 >= 3454;
x1_3 + x2_3 + x3_3 + x4_3 + x5_3 + x6_3 >= 1459;
x1_4 + x2_4 + x3_4 + x4_4 + x5_4 + x6_4 >= 1690;
x1_5 + x2_5 + x3_5 + x4_5 + x5_5 + x6_5 >= 1307;
x1_6 + x2_6 + x3_6 + x4_6 + x5_6 + x6_6 >= 4642;

int x1_1, x1_2, x1_3, x1_4, x1_5, x1_6, x2_1, x2_2, x2_3, x2_4, x2_5, x2_6, x3_1, x3_2, x3_3, x3_4, x3_5, x3_6, x4_1, x4_2, x4_3, x4_4, x4_5, x4_6, x5_1, x5_2, x5_3, x5_4, x5_5, x5_6, x6_1, x6_2, x6_3, x6_4, x6_5, x6_6;